units        metal
processors   * * *
boundary     p p p
atom_style   atomic
atom_modify  map yes

read_data    coords.lmp

pair_style   tersoff
pair_coeff   * * ../forcefields/SiCGe.tersoff Ge Si(D)
mass         2 28.09
mass         1 72.64


dynamical_matrix all eskm 1e-05 file dynmat.dat binary no
third_order all eskm 1e-05 file third.dat binary no
